Problem:    botanica2
Rows:       9
Columns:    7
Non-zeros:  21
Status:     OPTIMAL
Objective:  guadagni = 18497781.16 (MAXimum)

   No.   Row name   St   Activity     Lower bound   Upper bound    Marginal
------ ------------ -- ------------- ------------- ------------- -------------
     1 max_terreno_coltivabile
                    NU           500                         500          2500 
     2 max_per_pianta[A]
                    NU           100                         100         27500 
     3 max_per_pianta[B]
                    NU           100                         100         17500 
     4 max_per_pianta[C]
                    NU           100                         100          7500 
     5 max_per_pianta[D]
                    NU           100                         100         87500 
     6 max_per_pianta[E]
                    B              0                         100 
     7 max_per_pianta[F]
                    B              0                         100 
     8 max_per_pianta[G]
                    NU           100                         100         32500 
     9 guadagni     B       1.85e+07                             

   No. Column name  St   Activity     Lower bound   Upper bound    Marginal
------ ------------ -- ------------- ------------- ------------- -------------
     1 qt[A]        B            100             0               
     2 qt[B]        B            100             0               
     3 qt[C]        B            100             0               
     4 qt[D]        B            100             0               
     5 qt[E]        NL             0             0                       -2000 
     6 qt[F]        B              0             0               
     7 qt[G]        B            100             0               

Karush-Kuhn-Tucker optimality conditions:

KKT.PE: max.abs.err = 0.00e+00 on row 0
        max.rel.err = 0.00e+00 on row 0
        High quality

KKT.PB: max.abs.err = 0.00e+00 on row 0
        max.rel.err = 0.00e+00 on row 0
        High quality

KKT.DE: max.abs.err = 0.00e+00 on column 0
        max.rel.err = 0.00e+00 on column 0
        High quality

KKT.DB: max.abs.err = 0.00e+00 on row 0
        max.rel.err = 0.00e+00 on row 0
        High quality

End of output
